40516 38126 
39705 38590 
39925 38502 
40428 38205 
40521 38037 
40340 38214 
39780 38550 
39584 38792 
40667 37798 
39980 38389 
40574 37956 
40268 38348 
40928 37474 
40818 37525 
40747 37560 
41021 37316 
40715 37698 
40736 37622 
40790 37533 
41370 36696 
41336 36841 
41202 36977 
41104 37257 
41207 36846 
41632 36302 
41463 36528 
41469 36452 
41636 36267 
41340 36806 
38344 39321 
41705 36250 
41473 36417 
38088 39367 
38960 39011 
38881 39091 
41630 36358 
41171 37182 
37717 39559 
38700 39097 
42187 35094 
42024 35244 
38009 39447 
39227 38856 
41945 35478 
38625 39137 
41891 35633 
38524 39215 
38232 39327 
38084 39407 
38893 39082 
38986 38914 
41771 35958 
41794 35806 
39031 38883 
37908 39525 
37727 39531 
41725 36134 
37616 39637 
37435 39643 
41429 36673 
36910 39658 
39602 38604 
36835 39698 
39231 38796 
